
mapping with 16 threads...

 0:00:00.84 Mapping INCOV094-AC.extracted.fq.gz to NUC reference...

 0:05:08.28 Generating binary hit matrix.
0:05:08.31 Loading /labs/khatrilab/solomonb/covid/isb/optitype/INCOV094-AC_1.bam started. Number of HLA reads loaded (updated every thousand):
1K...2K...3K...4K...5K...6K...7K...8K...9K...10K...11K...12K...13K...14K...15K...16K...17K...18K...19K...20K...21K...22K...23K...24K...25K...26K...27K...28K...29K...30K...31K...32K...33K...34K...35K...36K...37K...38K...39K...40K...41K...42K...43K...44K...45K...46K...47K...48K...49K...50K...51K...52K...53K...54K...55K...56K...57K...58K...59K...60K...61K...62K...63K...64K...65K...66K...67K...68K...69K...70K...71K...72K...73K...74K...75K...76K...77K...78K...79K...80K...81K...82K...83K...84K...85K...86K...87K...88K...89K...90K...91K...92K...93K...94K...95K...96K...97K...98K...99K...100K...101K...102K...103K...
 0:05:47.65 103086 reads loaded. Creating dataframe...
0:16:03.65 Dataframes created. Shape: 103086 x 7339, hits: 33439974 (33490620), sparsity: 1 in 22.59

 0:16:48.18 temporary pruning of identical rows and columns

 0:16:53.10 Size of mtx with unique rows and columns: (2333, 1818)
0:16:53.10 determining minimal set of non-overshadowed alleles

 0:17:23.83 Keeping only the minimal number of required alleles (744,)

 0:17:24.69 Creating compact model...

starting ilp solver with 1 threads...

 0:18:54.97 Initializing OptiType model...
GLPSOL: GLPK LP/MIP Solver, v4.57
Parameter(s) specified in the command line:
 --write /tmp/tmpksCsFE.glpk.raw --wglp /tmp/tmpJYKtyt.glpk.glp --cpxlp /tmp/tmpj3fJap.pyomo.lp
Reading problem data from '/tmp/tmpj3fJap.pyomo.lp'...
/tmp/tmpj3fJap.pyomo.lp:90550: warning: lower bound of variable 'x5933' redefined
/tmp/tmpj3fJap.pyomo.lp:90550: warning: upper bound of variable 'x5933' redefined
5932 rows, 3706 columns, 66080 non-zeros
2224 integer variables, all of which are binary
92774 lines were read
Writing problem data to '/tmp/tmpJYKtyt.glpk.glp'...
86095 lines were written
GLPK Integer Optimizer, v4.57
5932 rows, 3706 columns, 66080 non-zeros
2224 integer variables, all of which are binary
Preprocessing...
1340 hidden covering inequaliti(es) were detected
5928 rows, 3704 columns, 66074 non-zeros
2223 integer variables, all of which are binary
Scaling...
 A: min|aij| =  1.000e+00  max|aij| =  5.000e+00  ratio =  5.000e+00
Problem data seem to be well scaled
Constructing initial basis...
Size of triangular part is 5928
Solving LP relaxation...
GLPK Simplex Optimizer, v4.57
5928 rows, 3704 columns, 66074 non-zeros
      0: obj =  -0.000000000e+00 inf =   4.000e+00 (4)
      4: obj =  -0.000000000e+00 inf =   0.000e+00 (0)
*   500: obj =   8.051721100e+04 inf =   3.569e-15 (1240)
*  1000: obj =   8.275687200e+04 inf =   1.270e-14 (907) 1
*  1500: obj =   8.309163800e+04 inf =   0.000e+00 (608) 1
*  2000: obj =   8.333436400e+04 inf =   0.000e+00 (351)
*  2359: obj =   8.353675600e+04 inf =   1.110e-16 (0)
OPTIMAL LP SOLUTION FOUND
Integer optimization begins...
+  2359: mip =     not found yet <=              +inf        (1; 0)
+  2368: >>>>>   8.353594200e+04 <=   8.353595200e+04 < 0.1% (2; 0)
+  2371: mip =   8.353594200e+04 <=     tree is empty   0.0% (0; 3)
INTEGER OPTIMAL SOLUTION FOUND
Time used:   0.6 secs
Memory used: 14.7 Mb (15462098 bytes)
Writing MIP solution to '/tmp/tmpksCsFE.glpk.raw'...
9640 lines were written

 0:19:04.43 Result dataframe has been constructed...
